
  22    4
  10   10   10   10

   0   0   0   0   0   6 2 3 4 6 7 13 
   4  10  10  10  10   4 20 12 8 5 
   7  10  10  10  10   3 20 9 8 
   5  10  10  10  10   4 21 19 17 10 
   7  10  10  10  10   4 19 18 14 11 
   7  10  10  10  10   2 15 8 
   9  10  10  10  10   4 19 18 17 16 
   8  10  10  10  10   3 19 18 17 
  10  10  10  10  10   3 18 16 15 
   8  10  10  10  10   2 15 14 
   2  10  10  10  10   2 16 15 
  10  10  10  10  10   2 17 15 
   1  10  10  10  10   2 16 15 
   5  10  10  10  10   1 16 
   8  10  10  10  10   1 22
  10  10  10  10  10   1 22
   4  10  10  10  10   1 22
   4  10  10  10  10   1 22
   5  10  10  10  10   1 22
   7  10  10  10  10   1 22
   1  10  10  10  10   1 22
   0   0   0   0   0   0 
